c description: Tseitin formula on Random 4-regular graph of 49 vertices, with odd charge
c generator: CNFgen (0.9.2)
c copyright: (C) 2012-2022 Massimo Lauria <massimo.lauria@uniroma1.it>
c url: https://massimolauria.net/cnfgen
c command line: cnfgen tseitin 49
c
p cnf 98 392
1 2 3 4 0
1 2 -3 -4 0
1 -2 3 -4 0
1 -2 -3 4 0
-1 2 3 -4 0
-1 2 -3 4 0
-1 -2 3 4 0
-1 -2 -3 -4 0
5 6 7 8 0
5 6 -7 -8 0
5 -6 7 -8 0
5 -6 -7 8 0
-5 6 7 -8 0
-5 6 -7 8 0
-5 -6 7 8 0
-5 -6 -7 -8 0
9 10 11 -12 0
9 10 -11 12 0
9 -10 11 12 0
9 -10 -11 -12 0
-9 10 11 12 0
-9 10 -11 -12 0
-9 -10 11 -12 0
-9 -10 -11 12 0
9 13 14 15 0
9 13 -14 -15 0
9 -13 14 -15 0
9 -13 -14 15 0
-9 13 14 -15 0
-9 13 -14 15 0
-9 -13 14 15 0
-9 -13 -14 -15 0
1 13 16 -17 0
1 13 -16 17 0
1 -13 16 17 0
1 -13 -16 -17 0
-1 13 16 17 0
-1 13 -16 -17 0
-1 -13 16 -17 0
-1 -13 -16 17 0
2 10 18 19 0
2 10 -18 -19 0
2 -10 18 -19 0
2 -10 -18 19 0
-2 10 18 -19 0
-2 10 -18 19 0
-2 -10 18 19 0
-2 -10 -18 -19 0
20 21 22 23 0
20 21 -22 -23 0
20 -21 22 -23 0
20 -21 -22 23 0
-20 21 22 -23 0
-20 21 -22 23 0
-20 -21 22 23 0
-20 -21 -22 -23 0
24 25 26 27 0
24 25 -26 -27 0
24 -25 26 -27 0
24 -25 -26 27 0
-24 25 26 -27 0
-24 25 -26 27 0
-24 -25 26 27 0
-24 -25 -26 -27 0
28 29 30 -31 0
28 29 -30 31 0
28 -29 30 31 0
28 -29 -30 -31 0
-28 29 30 31 0
-28 29 -30 -31 0
-28 -29 30 -31 0
-28 -29 -30 31 0
24 32 33 34 0
24 32 -33 -34 0
24 -32 33 -34 0
24 -32 -33 34 0
-24 32 33 -34 0
-24 32 -33 34 0
-24 -32 33 34 0
-24 -32 -33 -34 0
25 35 36 -37 0
25 35 -36 37 0
25 -35 36 37 0
25 -35 -36 -37 0
-25 35 36 37 0
-25 35 -36 -37 0
-25 -35 36 -37 0
-25 -35 -36 37 0
5 38 39 -40 0
5 38 -39 40 0
5 -38 39 40 0
5 -38 -39 -40 0
-5 38 39 40 0
-5 38 -39 -40 0
-5 -38 39 -40 0
-5 -38 -39 40 0
41 42 43 -44 0
41 42 -43 44 0
41 -42 43 44 0
41 -42 -43 -44 0
-41 42 43 44 0
-41 42 -43 -44 0
-41 -42 43 -44 0
-41 -42 -43 44 0
26 45 46 -47 0
26 45 -46 47 0
26 -45 46 47 0
26 -45 -46 -47 0
-26 45 46 47 0
-26 45 -46 -47 0
-26 -45 46 -47 0
-26 -45 -46 47 0
28 48 49 -50 0
28 48 -49 50 0
28 -48 49 50 0
28 -48 -49 -50 0
-28 48 49 50 0
-28 48 -49 -50 0
-28 -48 49 -50 0
-28 -48 -49 50 0
11 51 52 53 0
11 51 -52 -53 0
11 -51 52 -53 0
11 -51 -52 53 0
-11 51 52 -53 0
-11 51 -52 53 0
-11 -51 52 53 0
-11 -51 -52 -53 0
20 54 55 -56 0
20 54 -55 56 0
20 -54 55 56 0
20 -54 -55 -56 0
-20 54 55 56 0
-20 54 -55 -56 0
-20 -54 55 -56 0
-20 -54 -55 56 0
3 51 57 58 0
3 51 -57 -58 0
3 -51 57 -58 0
3 -51 -57 58 0
-3 51 57 -58 0
-3 51 -57 58 0
-3 -51 57 58 0
-3 -51 -57 -58 0
59 60 61 62 0
59 60 -61 -62 0
59 -60 61 -62 0
59 -60 -61 62 0
-59 60 61 -62 0
-59 60 -61 62 0
-59 -60 61 62 0
-59 -60 -61 -62 0
38 63 64 65 0
38 63 -64 -65 0
38 -63 64 -65 0
38 -63 -64 65 0
-38 63 64 -65 0
-38 63 -64 65 0
-38 -63 64 65 0
-38 -63 -64 -65 0
57 63 66 67 0
57 63 -66 -67 0
57 -63 66 -67 0
57 -63 -66 67 0
-57 63 66 -67 0
-57 63 -66 67 0
-57 -63 66 67 0
-57 -63 -66 -67 0
21 68 69 -70 0
21 68 -69 70 0
21 -68 69 70 0
21 -68 -69 -70 0
-21 68 69 70 0
-21 68 -69 -70 0
-21 -68 69 -70 0
-21 -68 -69 70 0
41 59 71 72 0
41 59 -71 -72 0
41 -59 71 -72 0
41 -59 -71 72 0
-41 59 71 -72 0
-41 59 -71 72 0
-41 -59 71 72 0
-41 -59 -71 -72 0
29 35 48 73 0
29 35 -48 -73 0
29 -35 48 -73 0
29 -35 -48 73 0
-29 35 48 -73 0
-29 35 -48 73 0
-29 -35 48 73 0
-29 -35 -48 -73 0
30 58 66 74 0
30 58 -66 -74 0
30 -58 66 -74 0
30 -58 -66 74 0
-30 58 66 -74 0
-30 58 -66 74 0
-30 -58 66 74 0
-30 -58 -66 -74 0
14 68 75 76 0
14 68 -75 -76 0
14 -68 75 -76 0
14 -68 -75 76 0
-14 68 75 -76 0
-14 68 -75 76 0
-14 -68 75 76 0
-14 -68 -75 -76 0
54 69 77 -78 0
54 69 -77 78 0
54 -69 77 78 0
54 -69 -77 -78 0
-54 69 77 78 0
-54 69 -77 -78 0
-54 -69 77 -78 0
-54 -69 -77 78 0
36 64 79 80 0
36 64 -79 -80 0
36 -64 79 -80 0
36 -64 -79 80 0
-36 64 79 -80 0
-36 64 -79 80 0
-36 -64 79 80 0
-36 -64 -79 -80 0
32 74 79 -81 0
32 74 -79 81 0
32 -74 79 81 0
32 -74 -79 -81 0
-32 74 79 81 0
-32 74 -79 -81 0
-32 -74 79 -81 0
-32 -74 -79 81 0
6 39 81 -82 0
6 39 -81 82 0
6 -39 81 82 0
6 -39 -81 -82 0
-6 39 81 82 0
-6 39 -81 -82 0
-6 -39 81 -82 0
-6 -39 -81 82 0
16 45 83 84 0
16 45 -83 -84 0
16 -45 83 -84 0
16 -45 -83 84 0
-16 45 83 -84 0
-16 45 -83 84 0
-16 -45 83 84 0
-16 -45 -83 -84 0
33 60 73 -85 0
33 60 -73 85 0
33 -60 73 85 0
33 -60 -73 -85 0
-33 60 73 85 0
-33 60 -73 -85 0
-33 -60 73 -85 0
-33 -60 -73 85 0
7 22 75 86 0
7 22 -75 -86 0
7 -22 75 -86 0
7 -22 -75 86 0
-7 22 75 -86 0
-7 22 -75 86 0
-7 -22 75 86 0
-7 -22 -75 -86 0
42 71 77 87 0
42 71 -77 -87 0
42 -71 77 -87 0
42 -71 -77 87 0
-42 71 77 -87 0
-42 71 -77 87 0
-42 -71 77 87 0
-42 -71 -77 -87 0
23 49 88 -89 0
23 49 -88 89 0
23 -49 88 89 0
23 -49 -88 -89 0
-23 49 88 89 0
-23 49 -88 -89 0
-23 -49 88 -89 0
-23 -49 -88 89 0
83 85 88 90 0
83 85 -88 -90 0
83 -85 88 -90 0
83 -85 -88 90 0
-83 85 88 -90 0
-83 85 -88 90 0
-83 -85 88 90 0
-83 -85 -88 -90 0
8 15 55 -91 0
8 15 -55 91 0
8 -15 55 91 0
8 -15 -55 -91 0
-8 15 55 91 0
-8 15 -55 -91 0
-8 -15 55 -91 0
-8 -15 -55 91 0
27 31 90 92 0
27 31 -90 -92 0
27 -31 90 -92 0
27 -31 -90 92 0
-27 31 90 -92 0
-27 31 -90 92 0
-27 -31 90 92 0
-27 -31 -90 -92 0
12 18 93 -94 0
12 18 -93 94 0
12 -18 93 94 0
12 -18 -93 -94 0
-12 18 93 94 0
-12 18 -93 -94 0
-12 -18 93 -94 0
-12 -18 -93 94 0
19 82 91 -93 0
19 82 -91 93 0
19 -82 91 93 0
19 -82 -91 -93 0
-19 82 91 93 0
-19 82 -91 -93 0
-19 -82 91 -93 0
-19 -82 -91 93 0
76 80 95 96 0
76 80 -95 -96 0
76 -80 95 -96 0
76 -80 -95 96 0
-76 80 95 -96 0
-76 80 -95 96 0
-76 -80 95 96 0
-76 -80 -95 -96 0
34 92 97 98 0
34 92 -97 -98 0
34 -92 97 -98 0
34 -92 -97 98 0
-34 92 97 -98 0
-34 92 -97 98 0
-34 -92 97 98 0
-34 -92 -97 -98 0
37 56 78 -84 0
37 56 -78 84 0
37 -56 78 84 0
37 -56 -78 -84 0
-37 56 78 84 0
-37 56 -78 -84 0
-37 -56 78 -84 0
-37 -56 -78 84 0
43 61 65 67 0
43 61 -65 -67 0
43 -61 65 -67 0
43 -61 -65 67 0
-43 61 65 -67 0
-43 61 -65 67 0
-43 -61 65 67 0
-43 -61 -65 -67 0
46 50 52 -97 0
46 50 -52 97 0
46 -50 52 97 0
46 -50 -52 -97 0
-46 50 52 97 0
-46 50 -52 -97 0
-46 -50 52 -97 0
-46 -50 -52 97 0
4 62 89 95 0
4 62 -89 -95 0
4 -62 89 -95 0
4 -62 -89 95 0
-4 62 89 -95 0
-4 62 -89 95 0
-4 -62 89 95 0
-4 -62 -89 -95 0
17 70 72 86 0
17 70 -72 -86 0
17 -70 72 -86 0
17 -70 -72 86 0
-17 70 72 -86 0
-17 70 -72 86 0
-17 -70 72 86 0
-17 -70 -72 -86 0
47 94 96 98 0
47 94 -96 -98 0
47 -94 96 -98 0
47 -94 -96 98 0
-47 94 96 -98 0
-47 94 -96 98 0
-47 -94 96 98 0
-47 -94 -96 -98 0
40 44 53 87 0
40 44 -53 -87 0
40 -44 53 -87 0
40 -44 -53 87 0
-40 44 53 -87 0
-40 44 -53 87 0
-40 -44 53 87 0
-40 -44 -53 -87 0
